(set-logic QF_LIA)
(declare-fun x0 () Int)
(declare-fun x1 () Int)
(declare-fun x2 () Int)
(declare-fun x3 () Int)
(declare-fun x4 () Int)
(declare-fun x5 () Int)
(declare-fun x6 () Int)
(declare-fun x7 () Int)
(declare-fun x8 () Int)
(declare-fun x9 () Int)
(declare-fun A1 () Bool)
(declare-fun A2 () Bool)
(declare-fun A3 () Bool)
(declare-fun A4 () Bool)
(declare-fun A5 () Bool)
(declare-fun A6 () Bool)
(declare-fun A7 () Bool)
(declare-fun A8 () Bool)
(declare-fun A9 () Bool)
(assert (let ((.def_0 (not A1))) (let ((.def_1 (= A8 .def_0))) (let ((.def_2 (not A9))) (let ((.def_3 (* 1 x6))) (let ((.def_4 (< .def_3 (- 1)))) (let ((.def_5 (= .def_4 .def_2))) (let ((.def_6 (not .def_5))) (let ((.def_7 (and .def_6 .def_1))) (let ((.def_8 (not .def_7))) (let ((.def_9 (not A6))) (let ((.def_10 (not A7))) (let ((.def_11 (or .def_10 .def_9))) (let ((.def_12 (* (- 1) x4))) (let ((.def_13 (+ .def_12 .def_3))) (let ((.def_14 (< .def_13 1))) (let ((.def_15 (* (- 1) x9))) (let ((.def_16 (< .def_15 (- 1)))) (let ((.def_17 (and .def_16 .def_14))) (let ((.def_18 (or .def_17 .def_11))) (let ((.def_19 (not .def_18))) (let ((.def_20 (or .def_19 .def_8))) (let ((.def_21 (not .def_20))) (let ((.def_22 (not A4))) (let ((.def_23 (or .def_22 A4))) (let ((.def_24 (* (- 1) x1))) (let ((.def_25 (< .def_24 1))) (let ((.def_26 (not .def_25))) (let ((.def_27 (and .def_26 A2))) (let ((.def_28 (not .def_27))) (let ((.def_29 (and .def_28 .def_23))) (let ((.def_30 (* 1 x4))) (let ((.def_31 (* 1 x1))) (let ((.def_32 (+ .def_31 .def_30))) (let ((.def_33 (< .def_32 1))) (let ((.def_34 (* 1 x8))) (let ((.def_35 (< .def_34 1))) (let ((.def_36 (= .def_35 .def_33))) (let ((.def_37 (* 1 x7))) (let ((.def_38 (+ .def_37 .def_24))) (let ((.def_39 (< .def_38 1))) (let ((.def_40 (* (- 1) x7))) (let ((.def_41 (+ .def_40 .def_30))) (let ((.def_42 (< .def_41 1))) (let ((.def_43 (= .def_42 .def_39))) (let ((.def_44 (and .def_43 .def_36))) (let ((.def_45 (not .def_44))) (let ((.def_46 (and .def_45 .def_29))) (let ((.def_47 (or .def_46 .def_21))) (let ((.def_48 (not .def_47))) (let ((.def_49 (and A3 .def_4))) (let ((.def_50 (< .def_24 (- 1)))) (let ((.def_51 (not .def_50))) (let ((.def_52 (or .def_2 .def_51))) (let ((.def_53 (and .def_52 .def_49))) (let ((.def_54 (< .def_12 1))) (let ((.def_55 (not .def_54))) (let ((.def_56 (or .def_10 .def_55))) (let ((.def_57 (not .def_56))) (let ((.def_58 (* (- 1) x3))) (let ((.def_59 (* 1 x2))) (let ((.def_60 (+ .def_59 .def_58))) (let ((.def_61 (< .def_60 1))) (let ((.def_62 (and .def_10 .def_61))) (let ((.def_63 (not .def_62))) (let ((.def_64 (or .def_63 .def_57))) (let ((.def_65 (and .def_64 .def_53))) (let ((.def_66 (not A8))) (let ((.def_67 (< .def_58 1))) (let ((.def_68 (and .def_67 .def_66))) (let ((.def_69 (or A7 .def_66))) (let ((.def_70 (not .def_69))) (let ((.def_71 (or .def_70 .def_68))) (let ((.def_72 (< .def_37 (- 1)))) (let ((.def_73 (not .def_72))) (let ((.def_74 (and .def_73 .def_35))) (let ((.def_75 (* 1 x9))) (let ((.def_76 (+ .def_34 .def_75))) (let ((.def_77 (< .def_76 (- 1)))) (let ((.def_78 (not A5))) (let ((.def_79 (or .def_78 .def_77))) (let ((.def_80 (and .def_79 .def_74))) (let ((.def_81 (not .def_80))) (let ((.def_82 (and .def_81 .def_71))) (let ((.def_83 (and .def_82 .def_65))) (let ((.def_84 (or .def_83 .def_48))) (let ((.def_85 (not .def_84))) (let ((.def_86 (<= x9 1))) (let ((.def_87 (<= 0 x9))) (let ((.def_88 (<= x8 1))) (let ((.def_89 (<= 0 x8))) (let ((.def_90 (<= x7 1))) (let ((.def_91 (<= 0 x7))) (let ((.def_92 (<= x6 1))) (let ((.def_93 (<= 0 x6))) (let ((.def_94 (<= x5 1))) (let ((.def_95 (<= 0 x5))) (let ((.def_96 (<= x4 1))) (let ((.def_97 (<= 0 x4))) (let ((.def_98 (<= x3 1))) (let ((.def_99 (<= 0 x3))) (let ((.def_100 (<= x2 1))) (let ((.def_101 (<= 0 x2))) (let ((.def_102 (<= x1 1))) (let ((.def_103 (<= 0 x1))) (let ((.def_104 (<= x0 1))) (let ((.def_105 (<= 0 x0))) (let ((.def_106 (and .def_105 .def_104 .def_103 .def_102 .def_101 .def_100 .def_99 .def_98 .def_97 .def_96 .def_95 .def_94 .def_93 .def_92 .def_91 .def_90 .def_89 .def_88 .def_87 .def_86 .def_85))) .def_106))))))))))))))))))))))))))))))))))))))))))))))))))))))))))))))))))))))))))))))))))))))))))))))))))))))))))))
(check-sat)
